c read Graph
c width = 661
c time = 1549 ms
c width = 28
c time = 2056 ms
c width = 27
c time = 4666 ms
c width = 25
c time = 6998 ms
c width = 25
c time = 119932 ms
s td 958 26 1002
b 1 1 141 584 716
b 2 61 141 584 700 716
b 3 61 141 212 542 700 716 873
b 4 141 212 542 585 700 716 873
b 5 141 212 542 585 700 873 892
b 6 141 542 585 648 700 873 892
b 7 141 234 542 585 648 873 892
b 8 141 147 234 239 542 585 648 892
b 9 141 147 239 443
b 10 5 147 234 239 284 379 542 585 648 709 835 892 932
b 11 5 201 234 239 284 379 452 463 502 542 585 648 650 709 715 764 835 886 892 907 932 965 990
b 12 156 201 239 452 463 502 511 650 715 764 835 886 892 907 965 990
b 13 156 201 239 330 463 502 511 650 715 764 835 886 892 905 907 990
b 14 330 372 463 715 764 905 907
b 15 62 330 372 463 715 905 907
b 16 62 330 372 463 487 905 907
b 17 62 330 372 487 894 905 907
b 18 62 68 372 894 905 907
b 19 62 68 664 894 905
b 20 62 311 664 905
b 21 68 565 664 894
b 22 68 322 664 905
b 23 62 330 372 487 733 894 905
b 24 330 487 724 733
b 25 372 487 733 894 966
b 26 487 733 874 966
b 27 372 487 884 966
b 28 156 201 239 330 502 511 650 715 764 795 835 886 892 905 990
b 29 156 795 858 886 905
b 30 156 201 239 330 496 502 511 650 715 764 795 835 892 905 990
b 31 201 496 502 715 764 795 939
b 32 496 502 715 764 795 903 939
b 33 422 496 715 764 795 903 939
b 34 110 422 496 764 795 903 939
b 35 110 422 496 769 795 903 939
b 36 220 422 496 769 795 939
b 37 115 220 496 939
b 38 220 769 831 939
b 39 110 422 769 795 903 976
b 40 207 422 795 976
b 41 754 795 903 976
b 42 110 617 769 903 976
b 43 110 217 617 769
b 44 110 681 769 939
b 45 156 239 330 424 496 511 650 795 835 892 905 990
b 46 156 239 330 424 511 905 906 990
b 47 239 330 424 511 906 923
b 48 239 424 621 906 923
b 49 239 621 906 923 950
b 50 239 876 923 950
b 51 183 621 923 950
b 52 47 156 424 496 511 795 892 990
b 53 47 171 424 496 511 892
b 54 47 171 424 501 892
b 55 47 171 501 784 892
b 56 171 228 784 892
b 57 171 501 677 784
b 58 330 424 485 496 795 835 905 990
b 59 330 424 485 496 824 835
b 60 424 485 563 824 835
b 61 424 485 563 798 824
b 62 12 424 485 798
b 63 485 563 798 982
b 64 156 201 452 502 511 713 965
b 65 156 201 502 511 570 713 965
b 66 156 201 406 511 570 713 965
b 67 156 201 406 511 570 713 879
b 68 156 382 570 713 879
b 69 156 320 382 570 879
b 70 70 320 382 879
b 71 156 201 343 406 511 713 879
b 72 201 242 343 406 511 879
b 73 57 242 343 511
b 74 242 343 406 879 925
b 75 242 343 925 1002
b 76 249 406 879 925
b 77 242 406 843 925
b 78 5 201 234 241 284 379 452 457 463 502 542 566 585 648 650 697 709 715 738 764 886 907 932 965 990 999
b 79 5 192 201 234 241 284 379 405 452 457 463 502 542 566 585 648 697 709 715 738 764 907 932 965 990 999
b 80 192 241 405 452 566 934 965
b 81 192 241 355 405 452 566 934
b 82 192 241 355 405 519 566 934
b 83 192 355 405 519 566 797 934
b 84 192 492 519 797
b 85 355 405 519 566 676 797 934
b 86 519 524 676 797 934
b 87 519 524 797 855
b 88 458 524 676 934
b 89 519 524 675 934
b 90 306 355 405 566 676 934
b 91 306 355 405 669 676
b 92 306 405 578 669 676
b 93 388 578 669 676
b 94 5 201 234 241 273 379 452 457 463 502 542 566 585 648 650 697 709 715 738 764 870 886 907 932 965 999
b 95 5 201 234 241 273 379 452 463 502 566 587 648 697 709 715 738 764 870 907 932 965
b 96 201 241 273 452 463 502 566 587 715 728 764 907
b 97 201 241 273 319 452 463 502 587 715 728 764 907
b 98 6 201 241 273 319 452 463 502 587 728 764 907
b 99 6 201 241 273 319 452 463 502 587 728 764 842
b 100 6 197 201 241 273 319 452 463 587 728 764 842
b 101 6 197 279 319 463 728 842
b 102 6 197 201 319 591 728 842
b 103 6 197 241 319 514 728 842
b 104 6 197 319 374 728 764 842
b 105 5 146 201 234 379 452 502 587 632 648 697 709 715 738 764 868 870 932 965
b 106 5 74 146 234 379 587 632 648 709 868 932
b 107 5 74 146 291 379 868
b 108 5 146 291 379 813
b 109 146 291 379 607 813
b 110 16 146 291 607 813
b 111 16 291 607 813 938
b 112 291 484 607 813 938
b 113 291 484 607 767 813
b 114 216 291 767 813
b 115 291 407 484 607 767
b 116 291 349 407 607 767
b 117 205 291 349 407 767
b 118 205 291 316 767
b 119 175 205 349 407 767
b 120 123 175 349 407
b 121 175 205 734 767
b 122 175 205 349 705
b 123 73 74 291 868
b 124 5 74 146 234 353 379 632 648
b 125 5 234 353 379 632 648 937
b 126 5 234 353 379 384 648 937
b 127 5 234 271 353 384 648 937
b 128 234 271 353 369 384 648 937
b 129 234 271 353 369 384 776 937
b 130 75 384 776 937
b 131 234 271 353 369 384 449 776
b 132 51 234 271 384 449 776
b 133 51 384 449 527 776
b 134 88 384 449 527 776
b 135 25 88 449 527
b 136 271 353 369 449 633
b 137 271 449 595 633
b 138 271 353 575 633
b 139 302 353 369 633
b 140 74 146 353 992
b 141 5 74 379 478 632 709 868 932
b 142 74 478 567 632
b 143 5 379 467 478 709 868 932
b 144 190 379 467 478 709 868 932
b 145 99 190 379 467 478 709 932
b 146 99 190 467 478 644 709 932
b 147 99 190 467 478 510 644 709
b 148 99 190 454 467 478 510 644
b 149 83 190 454 644
b 150 99 325 454 510 644
b 151 99 325 641 644
b 152 325 333 454 644
b 153 99 325 346 510
b 154 14 99 467 478 510 709
b 155 14 467 478 510 640
b 156 14 478 510 640 685
b 157 162 510 640 685
b 158 146 201 371 452 479 502 632 697 715 738 764 868 870 965
b 159 11 146 201 371 452 479 502 564 632 697 738 868 870 965
b 160 11 146 371 431 452 479 564 632 697 717 738 868 870 965
b 161 11 146 371 431 479 564 697 717 790 870
b 162 431 480 717 790 870
b 163 11 146 479 697 790 974
b 164 146 697 790 960 974
b 165 146 707 790 960 974
b 166 93 707 960 974
b 167 146 517 707 974
b 168 11 371 404 431 452 479 564 632 697 717 738 868 965
b 169 2 11 404 431 632 697
b 170 2 431 508 632 697
b 171 2 124 431 508 697
b 172 84 124 431 508
b 173 124 431 697 759
b 174 404 479 697 717 868 928
b 175 697 717 868 899 928
b 176 465 697 717 899 928
b 177 97 465 697 717
b 178 465 717 899 913
b 179 371 404 431 452 564 717 738 965 995
b 180 371 564 594 738 995
b 181 404 452 891 965 995
b 182 329 404 891 965 995
b 183 329 400 404 891 995
b 184 329 400 691 891 995
b 185 326 329 400 691 995
b 186 326 329 336 400
b 187 326 329 539 691 995
b 188 96 326 329 539
b 189 326 539 691 933 995
b 190 253 539 691 933 995
b 191 253 627 691 933
b 192 253 539 819 933
b 193 326 447 539 933
b 194 329 400 404 735
b 195 11 201 452 502 564 636 965
b 196 11 201 283 452 502 564 636
b 197 11 201 283 494 502 564 636
b 198 11 201 283 494 564 596 636
b 199 283 494 564 596 773
b 200 494 564 596 773 920
b 201 576 596 773 920
b 202 11 201 283 564 596 636 704
b 203 11 20 201 596 636 704
b 204 11 20 704 818
b 205 20 596 636 692 704
b 206 46 596 636 692
b 207 20 692 704 977
b 208 20 636 692 758
b 209 371 452 453 479 715 764 965
b 210 324 371 453 479 715 764 965
b 211 324 371 453 455 479 715 764
b 212 324 371 453 455 479 614 764
b 213 318 324 479 614
b 214 324 371 453 455 614 764 971
b 215 161 324 453 614 764 971
b 216 161 324 544 614 971
b 217 324 395 544 614
b 218 161 324 544 816
b 219 161 544 902 971
b 220 371 453 455 721 971
b 221 371 433 453 721
b 222 371 455 721 794
b 223 5 201 234 241 273 379 452 457 463 502 542 566 585 648 650 709 770 870 886 907 932 965 999
b 224 5 102 201 241 297 379 452 457 463 502 542 566 585 650 709 770 870 886 907 932 965 999
b 225 5 102 297 379 542 585 650 783
b 226 297 650 751 783
b 227 5 102 379 542 585 783 931
b 228 5 102 331 542 585 783 931
b 229 102 331 542 585 783 880 931
b 230 102 331 542 783 880 931 991
b 231 331 665 783 880 991
b 232 609 665 783 880 991
b 233 24 609 665 991
b 234 102 331 542 737 783 931 991
b 235 102 542 548 737 931 991
b 236 35 102 548 737
b 237 548 553 737 931 991
b 238 166 553 931 991
b 239 270 548 553 737
b 240 308 548 553 931
b 241 102 201 241 297 452 457 463 502 542 566 585 650 709 770 849 870 886 907 932 965 999
b 242 297 338 542 585 650 709 849 932
b 243 338 650 746 849
b 244 297 338 542 585 652 709 932
b 245 338 542 585 652 709 932 979
b 246 338 542 571 585 652 932 979
b 247 338 528 542 571 585 652 979
b 248 338 528 542 571 652 792 979
b 249 160 571 652 792
b 250 338 528 542 571 718 792 979
b 251 542 551 571 718 792 979
b 252 551 571 586 718 792
b 253 335 551 586 718
b 254 571 586 792 839
b 255 551 571 586 695
b 256 338 528 545 718 979
b 257 338 522 528 545
b 258 314 338 545 979
b 259 102 201 241 274 297 452 457 463 502 566 650 770 849 870 886 907 965 999
b 260 274 457 756 849 999
b 261 243 274 457 756 999
b 262 240 243 457 756 999
b 263 120 240 243 457 756
b 264 120 240 243 712 756
b 265 120 240 243 712 885
b 266 240 243 712 810 885
b 267 240 712 810 885 952
b 268 810 877 885 952
b 269 240 712 744 810 952
b 270 240 712 744 766
b 271 240 488 744 810 952
b 272 313 488 810 952
b 273 240 488 629 744
b 274 488 529 744 952
b 275 130 240 712 756
b 276 102 201 241 274 297 366 452 463 469 502 566 770 849 870 886 907 965
b 277 201 351 366 463 469 502 907
b 278 201 286 351 366 469 502 907
b 279 121 201 286 351 366 469 502
b 280 121 201 286 351 366 469 503
b 281 201 286 351 366 469 503 857
b 282 27 201 351 366 503 857
b 283 27 366 857 921
b 284 27 351 503 657 857
b 285 27 351 503 657 706
b 286 181 503 657 706
b 287 49 121 286 469 503
b 288 29 49 121 503
b 289 49 121 469 562
b 290 26 49 286 469
b 291 102 125 241 274 297 366 452 463 469 566 770 779 849 870 886 907 965
b 292 125 452 463 723 779 907 965
b 293 125 452 463 471 723 779 965
b 294 125 310 452 471 723 779 965
b 295 125 310 471 723 779 949 965
b 296 125 420 471 949
b 297 310 471 600 723 779 949 965
b 298 448 471 600 723 949 965
b 299 446 448 471 600 949
b 300 377 446 448 471
b 301 446 471 525 949
b 302 310 506 600 723 779
b 303 268 310 506 779
b 304 132 506 600 723
b 305 506 723 779 916
b 306 125 187 366 469 779 849 870 886
b 307 125 187 211 366 849 870
b 308 187 211 440 849 870
b 309 187 211 440 753 849
b 310 92 211 753 849
b 311 31 211 440 753
b 312 43 102 125 241 274 297 366 469 566 770 779 870 886
b 313 43 102 125 241 274 297 366 469 566 779 870 886 948
b 314 43 102 274 347 469 870 886 948
b 315 102 274 347 703 870 948
b 316 100 102 274 703
b 317 347 703 870 948 998
b 318 347 678 870 998
b 319 312 347 703 998
b 320 43 125 241 297 566 730 779 870 886 948
b 321 43 191 241 566 730 948
b 322 43 191 241 566 922
b 323 43 118 297 730 779 870 886
b 324 118 297 555 730 870
b 325 67 118 297 555 730
b 326 63 67 297 730
b 327 67 555 654 730
b 328 43 442 469 770 779
b 329 5 234 273 457 542 585 648 709 770 909 932 999
b 330 5 234 273 457 542 585 623 709 770 909 932 999
b 331 5 234 273 542 585 623 709 770 909 929 932 999
b 332 234 273 542 585 623 709 770 821 909 929 932 999
b 333 234 273 337 542 585 623 770 821 909 929 932 999
b 334 337 547 623 821 909 929 932
b 335 189 234 337 623 821 909 929
b 336 22 337 542 623 821 909 929
b 337 56 337 623 821 909 929 999
b 338 273 337 512 623 821 909 929
b 339 5 50 147 379 709 835 892 932
b 340 50 147 736 892
b 341 5 50 379 709 835 932 988
b 342 5 50 379 666 709 932 988
b 343 50 379 581 666 709 932 988
b 344 50 290 379 581 666 709 988
b 345 50 290 379 558 581 666 988
b 346 50 290 379 558 581 666 701
b 347 77 290 379 558 581 701
b 348 77 558 581 701 814
b 349 77 321 581 701 814
b 350 138 321 701 814
b 351 50 290 401 666 701
b 352 290 401 701 778
b 353 50 257 401 666
b 354 50 290 359 401
b 355 261 558 581 988
b 356 147 234 239 648 709 835 888 932
b 357 147 696 835 888
b 358 234 239 648 709 820 888 932
b 359 234 239 648 709 763 820 888
b 360 234 239 638 648 763 820 888
b 361 239 532 638 648 763 820 888
b 362 239 532 638 763 820 888 962
b 363 239 532 638 820 888 943 962
b 364 426 638 820 943 962
b 365 295 426 820 943
b 366 426 638 684 820
b 367 239 301 532 820 888 943
b 368 301 531 820 943
b 369 532 763 807 888 962
b 370 34 532 807 888
b 371 76 763 807 962
b 372 419 763 807 888
b 373 61 141 212 542 700 803 873
b 374 9 61 212 542 803 873
b 375 9 212 572 803
b 376 9 61 757 803 873
b 377 9 61 415 757 873
b 378 61 145 415 757
b 379 141 584 700 771
b 380 61 584 590 716
b 381 5 17 192 201 234 241 284 379 387 457 463 502 542 566 585 648 668 697 709 738 761 898 907 932 964 999
b 382 5 17 192 201 234 241 284 379 457 463 502 542 566 585 646 648 668 697 709 738 761 898 907 932 964 999
b 383 5 17 192 201 234 241 284 379 457 463 502 542 566 585 646 648 659 668 697 709 738 898 907 932 964 999
b 384 5 17 192 201 234 241 284 379 405 457 463 502 542 566 585 646 648 659 697 709 738 898 907 932 964 999
b 385 5 192 201 234 241 284 379 405 457 463 502 542 566 585 646 648 659 697 709 738 898 907 932 964 990 999
b 386 5 192 201 234 241 284 379 405 457 463 502 542 566 585 648 659 697 709 715 738 764 907 932 964 990 999
b 387 17 201 241 387 457 463 502 542 566 585 604 668 697 709 738 898 907 932 953 999
b 388 542 585 604 912 953
b 389 542 585 604 904 912
b 390 196 542 585 904 912
b 391 140 196 542 904 912
b 392 140 196 344 904 912
b 393 140 196 341 344 912
b 394 140 341 344 777 912
b 395 140 341 489 777 912
b 396 140 341 468 489 777
b 397 341 354 468 489 777
b 398 354 468 489 844
b 399 41 354 468 777
b 400 341 354 489 651
b 401 140 468 749 777
b 402 140 344 777 780
b 403 140 344 499 904
b 404 17 201 241 387 457 463 502 566 604 668 697 709 711 738 741 898 907 932 953 999
b 405 17 201 241 387 463 502 566 604 668 711 738 741 898 907 932 953 999
b 406 457 604 697 709 711 741 932 953 997 999
b 407 457 521 709 711 741 932 997 999
b 408 521 543 741 997
b 409 457 521 709 711 828 932 999
b 410 457 521 711 828 852 932 999
b 411 521 711 729 828 852 932 999
b 412 134 521 711 729 828 852 932
b 413 134 521 711 729 828 852 867
b 414 134 250 521 711 852 867
b 415 36 134 250 711
b 416 134 172 250 867
b 417 521 687 729 828 852 867
b 418 521 672 687 828
b 419 168 687 729 828 867
b 420 168 255 729 867
b 421 521 687 852 897
b 422 134 729 867 915
b 423 4 457 604 709 741 932 997 999
b 424 4 457 655 709 741 932 999
b 425 4 457 655 709 796 932 999
b 426 4 457 583 655 796 932 999
b 427 4 154 583 655 796 932 999
b 428 4 154 583 655 796 942 999
b 429 4 154 583 796 817 942 999
b 430 66 154 796 817 942 999
b 431 66 137 154 817 942
b 432 66 137 742 817
b 433 111 137 154 942
b 434 66 137 154 647
b 435 4 304 583 796 817
b 436 4 304 786 796
b 437 4 200 304 583
b 438 154 655 856 942
b 439 4 13 604 997
b 440 17 105 201 241 340 387 463 502 566 604 631 668 711 738 741 893 898 907 953
b 441 201 241 272 502 566 631 893
b 442 201 241 266 272 566 631 893
b 443 177 201 266 272 566 631 893
b 444 69 177 201 266 272 631 893
b 445 69 177 266 272 631 745 893
b 446 69 177 466 631 745 893
b 447 69 327 466 631
b 448 69 235 466 745
b 449 69 266 745 837
b 450 177 266 272 645 745 893
b 451 272 537 645 893
b 452 266 272 538 645 745
b 453 266 538 745 985
b 454 177 305 645 893
b 455 105 340 387 604 631 690 738 893
b 456 105 387 604 631 690 836
b 457 387 411 604 690 836
b 458 163 387 411 690 836
b 459 163 380 411 690
b 460 91 163 387 690
b 461 105 201 241 340 502 566 806
b 462 105 201 241 340 566 806 900
b 463 105 241 340 500 566 806 900
b 464 105 241 323 340 500 806 900
b 465 30 105 323 900
b 466 194 241 323 340 500 806 900
b 467 65 194 340 806
b 468 194 340 500 601
b 469 194 225 241 323 806 900
b 470 169 194 225 323 806 900
b 471 169 225 775 900
b 472 53 169 194 225 806
b 473 53 169 225 682
b 474 169 293 323 900
b 475 17 105 340 387 463 631 668 711 738 741 851 893 898 907 953
b 476 105 167 340 387 463 631 711 738 741 851 893 907 953
b 477 167 387 711 738 851 893 953 957
b 478 152 167 387 711 953 957
b 479 152 167 387 954 957
b 480 142 152 954 957
b 481 387 890 954 957
b 482 152 711 947 953
b 483 105 167 340 387 463 738 741 851 862 907
b 484 135 167 463 851 862 907
b 485 135 463 833 851 907
b 486 340 365 387 738 741 851 862
b 487 59 365 387 741 862
b 488 59 365 375 741 862
b 489 23 59 375 862
b 490 375 552 741 862
b 491 17 340 668 850 851 893 898
b 492 17 119 668 850 898
b 493 5 17 192 234 284 379 387 457 542 585 648 668 709 743 761 898 932 964 999
b 494 17 192 284 743 846 964
b 495 17 282 284 743 846
b 496 17 282 546 743 846
b 497 278 282 546 846
b 498 513 546 743 846
b 499 5 192 234 284 379 387 403 457 542 585 648 668 709 743 761 898 932 964 999
b 500 284 379 387 403 457 542 585 648 668 709 743 761 898 932 964 999
b 501 5 192 234 284 334 379 387 403 457 542 585 648 709 743 761 898 932 999
b 502 5 234 334 339 379 387 403 457 542 585 648 709 743 932 999
b 503 234 334 339 648 709 743 840 932
b 504 7 339 743 840
b 505 234 334 625 648 709 840 932
b 506 222 234 625 648 709 840 932
b 507 176 222 234 625 709 840 932
b 508 176 222 251 625 709 840 932
b 509 176 222 251 625 840 932 936
b 510 222 251 435 840 936
b 511 251 435 515 840
b 512 251 399 435 936
b 513 222 298 435 840
b 514 176 222 625 840 932 936 970
b 515 89 176 625 932 936 970
b 516 89 176 789 936 970
b 517 89 176 765 789 936
b 518 475 765 789 936
b 519 89 625 830 970
b 520 5 112 334 339 379 403 457 542 585 709 743 932 999
b 521 112 542 585 709 743 932 986
b 522 112 542 616 709 743 932 986
b 523 112 280 616 709 743 932 986
b 524 112 280 616 709 881 932 986
b 525 112 280 376 616 881 932 986
b 526 280 376 616 799
b 527 112 376 580 616 881 932 986
b 528 81 376 580 616 932 986
b 529 81 281 376 580 616
b 530 81 281 536 580
b 531 81 281 616 917
b 532 116 281 376 616
b 533 112 580 881 984 986
b 534 112 427 881 984
b 535 112 208 984 986
b 536 5 112 334 339 379 403 457 747 999
b 537 5 113 334 339 379 457 747 999
b 538 113 334 339 719
b 539 5 113 379 457 747 822 999
b 540 113 379 457 620 747 822 999
b 541 113 457 620 658 747 822 999
b 542 113 396 620 658 747 822 999
b 543 113 396 620 658 747 822 848
b 544 113 263 396 620 747 822 848
b 545 263 396 661 747
b 546 213 263 396 620 848
b 547 109 213 263 396
b 548 213 603 620 848
b 549 213 396 620 752
b 550 113 414 658 822 848
b 551 113 414 658 834 848
b 552 269 414 834 848
b 553 112 339 403 639 747
b 554 199 403 639 747
b 555 149 192 284 334 761 898
b 556 149 159 284 334 898
b 557 149 159 334 898 926
b 558 149 159 350 926
b 559 58 149 334 926
b 560 284 403 619 668 761 964
b 561 284 403 619 668 679
b 562 296 403 619 668 679
b 563 287 296 619 679
b 564 201 502 659 715 764 787 964
b 565 201 502 659 688 715 787 964
b 566 474 502 659 688 715 787 964
b 567 434 474 659 688 715 787 964
b 568 434 474 659 688 787 871 964
b 569 688 841 871 964
b 570 104 434 474 659 688 787 871
b 571 72 104 434 474 659
b 572 72 104 474 739
b 573 37 72 434 659
b 574 72 79 474 659
b 575 104 688 787 871 924
b 576 104 688 762 871 924
b 577 104 231 762 924
b 578 405 646 659 882 990
b 579 201 463 502 598 646 761 907
b 580 201 502 535 598 646 761 907
b 581 122 502 535 598 646 761 907
b 582 122 535 598 646 761 838 907
b 583 122 288 535 646 838 907
b 584 122 288 394 646 838
b 585 21 122 394 646
b 586 288 394 646 671
b 587 288 394 838 993
b 588 122 535 598 646 708 761 838
b 589 209 598 708 761
b 590 535 598 708 838 951
b 591 393 535 598 838 951
b 592 114 393 838 951
b 593 135 463 599 833 851
b 594 135 254 599 833 851
b 595 184 254 599 833 851
b 596 184 599 634 833 851
b 597 599 612 634 833 851
b 598 599 612 634 845 851
b 599 131 599 612 634 845
b 600 103 131 612 634 845
b 601 103 131 634 748
b 602 103 131 781 845
b 603 18 103 612 845
b 604 244 612 845 851
b 605 612 702 833 851
b 606 43 191 566 635 922
b 607 43 191 635 788 922
b 608 43 127 635 788 922
b 609 43 127 755 788 922
b 610 127 755 788 805 922
b 611 755 788 805 896 922
b 612 80 788 805 896 922
b 613 80 170 788 922
b 614 80 165 896 922
b 615 80 509 805 896
b 616 423 755 805 896
b 617 127 357 755 805
b 618 15 191 788 922
b 619 416 947 953
b 620 214 899 928
b 621 188 890 957
b 622 860 884 966
b 623 882 981 990
b 624 880 918 991
b 625 185 876 923
b 626 247 867 915
b 627 858 875 886
b 628 198 857 921
b 629 498 856 942
b 630 438 843 925
b 631 622 841 871
b 632 144 831 939
b 633 39 830 970
b 634 206 819 933
b 635 608 810 877
b 636 663 798 982
b 637 432 796 817
b 638 790 941 960
b 639 19 754 976
b 640 516 749 777
b 641 747 822 914
b 642 746 849 972
b 643 409 745 837
b 644 549 736 892
b 645 40 724 733
b 646 182 718 979
b 647 602 711 852
b 648 709 722 821
b 649 630 704 818
b 650 418 703 948
b 651 702 829 851
b 652 425 697 997
b 653 186 696 835
b 654 158 692 758
b 655 391 691 995
b 656 568 688 762
b 657 626 681 769
b 658 389 677 784
b 659 417 672 687
b 660 445 668 679
b 661 495 666 988
b 662 164 665 783
b 663 381 658 848
b 664 106 648 909
b 665 477 638 962
b 666 179 629 744
b 667 507 621 906
b 668 315 617 903
b 669 603 620 768
b 670 428 599 634
b 671 598 908 951
b 672 594 738 901
b 673 383 590 716
b 674 52 586 695
b 675 264 583 655
b 676 581 611 814
b 677 580 785 986
b 678 576 673 920
b 679 575 633 935
b 680 230 572 803
b 681 356 571 839
b 682 570 660 879
b 683 567 632 823
b 684 566 653 728
b 685 564 773 811
b 686 563 824 969
b 687 363 552 862
b 688 332 547 932
b 689 439 544 816
b 690 530 543 741
b 691 54 537 645
b 692 535 838 940
b 693 259 531 943
b 694 528 652 854
b 695 218 524 675
b 696 521 649 897
b 697 519 637 855
b 698 256 517 974
b 699 493 513 846
b 700 511 713 958
b 701 509 896 944
b 702 45 506 916
b 703 139 502 842
b 704 494 596 750
b 705 133 492 797
b 706 489 651 694
b 707 246 488 529
b 708 361 487 874
b 709 78 484 938
b 710 82 480 870
b 711 219 478 640
b 712 436 475 765
b 713 474 725 739
b 714 459 471 525
b 715 362 465 913
b 716 458 482 934
b 717 457 623 800
b 718 303 455 479
b 719 453 864 971
b 720 448 600 980
b 721 447 539 973
b 722 412 442 770
b 723 435 515 815
b 724 195 434 964
b 725 348 433 721
b 726 431 476 759
b 727 426 684 740
b 728 262 424 650
b 729 227 423 805
b 730 422 496 589
b 731 136 420 949
b 732 238 419 807
b 733 412 441 451
b 734 412 442 910
b 735 412 588 910
b 736 412 451 588
b 737 411 674 836
b 738 407 597 607
b 739 405 669 866
b 740 173 404 891
b 741 403 619 987
b 742 400 735 869
b 743 394 624 671
b 744 388 578 579
b 745 379 760 770
b 746 252 377 446
b 747 376 799 808
b 748 374 764 919
b 749 372 560 894
b 750 371 523 794
b 751 277 369 937
b 752 87 359 401
b 753 357 755 809
b 754 354 844 955
b 755 351 503 680
b 756 350 392 926
b 757 347 582 678
b 758 55 344 499
b 759 28 341 912
b 760 155 340 601
b 761 339 387 686
b 762 338 522 996
b 763 337 585 865
b 764 275 335 551
b 765 193 334 719
b 766 333 358 644
b 767 329 336 473
b 768 327 466 540
b 769 85 325 641
b 770 324 395 727
b 771 322 664 699
b 772 128 319 715
b 773 202 318 614
b 774 316 732 767
b 775 314 470 545
b 776 71 313 952
b 777 312 946 998
b 778 311 905 927
b 779 308 553 930
b 780 306 367 676
b 781 305 893 968
b 782 229 304 786
b 783 292 302 353
b 784 301 504 532
b 785 285 298 840
b 786 148 297 751
b 787 295 820 911
b 788 293 541 900
b 789 210 290 778
b 790 288 289 993
b 791 287 296 989
b 792 129 286 366
b 793 281 397 917
b 794 280 518 881
b 795 279 309 463
b 796 232 278 546
b 797 107 273 965
b 798 273 352 512
b 799 273 352 464
b 800 272 490 538
b 801 33 271 595
b 802 270 437 548
b 803 269 561 834
b 804 95 268 779
b 805 266 456 985
b 806 263 461 661
b 807 261 558 615
b 808 236 255 729
b 809 253 569 627
b 810 251 399 791
b 811 249 406 462
b 812 244 612 782
b 813 243 793 885
b 814 242 430 1002
b 815 204 241 514
b 816 240 766 975
b 817 239 443 714
b 818 231 827 924
b 819 225 233 682
b 820 222 276 625
b 821 153 216 291
b 822 213 245 752
b 823 212 413 700
b 824 209 618 708
b 825 208 386 984
b 826 207 215 795
b 827 180 205 734
b 828 98 201 591
b 829 42 199 639
b 830 197 452 526
b 831 117 196 904
b 832 192 355 861
b 833 191 635 1000
b 834 151 190 467
b 835 189 234 368
b 836 187 223 440
b 837 184 254 610
b 838 183 497 950
b 839 181 237 706
b 840 177 631 983
b 841 176 656 936
b 842 175 705 956
b 843 171 228 534
b 844 170 267 922
b 845 169 421 775
b 846 168 221 828
b 847 166 472 931
b 848 163 317 380
b 849 44 162 685
b 850 161 825 902
b 851 160 613 792
b 852 90 159 898
b 853 156 382 863
b 854 60 152 167
b 855 143 147 284
b 856 146 801 992
b 857 8 145 415
b 858 142 826 954
b 859 141 328 771
b 860 140 772 780
b 861 138 321 802
b 862 3 137 647
b 863 135 812 833
b 864 134 172 265
b 865 132 723 895
b 866 131 643 748
b 867 130 712 804
b 868 125 310 481
b 869 123 349 994
b 870 101 122 761
b 871 120 756 959
b 872 119 178 850
b 873 118 258 555
b 874 116 483 616
b 875 115 220 224
b 876 114 393 573
b 877 113 414 1001
b 878 112 427 429
b 879 111 154 550
b 880 110 217 300
b 881 109 342 396
b 882 86 105 500
b 883 64 104 787
b 884 32 103 781
b 885 102 331 606
b 886 100 274 961
b 887 99 346 847
b 888 97 444 717
b 889 96 326 505
b 890 93 707 774
b 891 92 211 945
b 892 91 690 731
b 893 89 174 789
b 894 38 88 384
b 895 84 124 364
b 896 83 454 698
b 897 81 536 978
b 898 80 165 683
b 899 10 77 701
b 900 76 662 763
b 901 75 776 872
b 902 74 370 587
b 903 74 370 693
b 904 74 693 853
b 905 74 853 963
b 906 73 226 868
b 907 72 79 307
b 908 70 320 710
b 909 69 235 410
b 910 68 150 565
b 911 67 486 654
b 912 66 345 742
b 913 65 194 408
b 914 63 605 730
b 915 62 248 330
b 916 61 373 873
b 917 59 365 628
b 918 58 149 559
b 919 57 343 385
b 920 56 450 999
b 921 53 667 806
b 922 51 449 883
b 923 50 257 859
b 924 49 554 562
b 925 47 390 501
b 926 46 157 636
b 927 43 48 127
b 928 41 360 468
b 929 37 260 659
b 930 36 250 378
b 931 35 737 889
b 932 34 642 888
b 933 31 520 753
b 934 30 126 323
b 935 29 121 294
b 936 27 577 657
b 937 26 469 491
b 938 25 527 878
b 939 24 556 609
b 940 23 375 557
b 941 22 542 689
b 942 21 398 646
b 943 20 726 977
b 944 18 402 845
b 945 17 282 720
b 946 16 593 813
b 947 15 108 788
b 948 14 94 510
b 949 13 574 604
b 950 12 460 485
b 951 11 283 832
b 952 9 592 757
b 953 7 743 887
b 954 6 670 907
b 955 5 533 929
b 956 4 200 967
b 957 2 203 508
b 958 1 299 584
1 958
1 2
2 380
2 379
2 3
3 916
3 823
3 373
3 4
4 5
5 6
6 7
7 8
8 10
8 9
9 817
10 855
10 339
10 356
10 11
11 78
11 12
12 64
12 13
13 28
13 14
14 15
15 915
15 16
16 17
17 749
17 18
17 23
18 19
19 20
19 22
19 21
20 778
21 910
22 771
23 24
23 25
24 645
25 26
25 27
26 708
27 622
28 29
28 30
29 627
30 31
30 45
31 32
32 33
33 730
33 34
34 35
35 44
35 36
35 39
36 37
36 38
37 875
38 632
39 40
39 41
39 42
40 826
41 639
42 668
42 43
43 880
44 657
45 728
45 52
45 58
45 46
46 47
47 48
48 667
48 49
49 51
49 50
50 625
51 838
52 53
53 54
54 925
54 55
55 56
55 57
56 843
57 658
58 59
59 60
60 686
60 61
61 62
61 63
62 950
63 636
64 700
64 65
65 66
66 67
67 682
67 68
67 71
68 853
68 69
69 70
70 908
71 72
72 73
72 74
73 919
74 75
74 77
74 76
75 814
76 811
77 630
78 94
78 79
79 386
79 80
80 81
81 832
81 82
82 83
83 85
83 84
84 705
85 86
85 90
86 88
86 89
86 87
87 697
88 716
89 695
90 780
90 91
91 739
91 92
92 93
93 744
94 797
94 95
94 223
95 105
95 96
96 684
96 97
97 772
97 98
98 954
98 99
99 703
99 100
100 830
100 101
100 104
100 103
100 102
101 795
102 828
103 815
104 748
105 158
105 106
106 902
106 107
106 124
106 141
107 123
107 108
108 109
109 110
110 946
110 111
111 112
112 709
112 113
113 114
113 115
114 821
115 738
115 116
116 117
117 118
117 119
118 774
119 120
119 122
119 121
120 869
121 827
122 842
123 906
124 140
124 125
125 126
126 127
127 128
128 751
128 129
129 130
129 131
130 901
131 136
131 132
132 922
132 133
133 134
134 894
134 135
135 938
136 139
136 138
136 137
137 801
138 679
139 783
140 856
141 142
141 143
142 683
143 144
144 834
144 145
145 146
146 147
147 154
147 148
148 149
148 150
149 896
150 152
150 151
150 153
151 769
152 766
153 887
154 948
154 155
155 711
155 156
156 157
157 849
158 209
158 159
159 195
159 160
160 161
160 168
161 162
161 163
162 710
163 164
164 638
164 165
165 166
165 167
166 890
167 698
168 169
168 174
168 179
169 170
170 957
170 171
171 172
171 173
172 895
173 726
174 175
175 620
175 176
176 177
176 178
177 888
178 715
179 181
179 180
180 672
181 740
181 182
182 183
183 194
183 184
184 655
184 185
185 186
185 187
186 767
187 188
187 189
188 889
189 193
189 190
190 192
190 191
191 809
192 634
193 721
194 742
195 196
196 951
196 197
197 198
198 704
198 199
198 202
199 685
199 200
200 201
201 678
202 203
203 204
203 205
204 649
205 206
205 208
205 207
206 926
207 943
208 654
209 210
210 211
211 718
211 212
212 213
212 214
213 773
214 719
214 220
214 215
215 216
216 217
216 218
216 219
217 770
218 689
219 850
220 221
220 222
221 725
222 750
223 745
223 224
223 329
224 241
224 225
225 226
225 227
226 786
227 228
228 885
228 229
229 230
230 624
230 231
230 234
231 662
231 232
232 233
233 939
234 235
235 236
235 237
236 931
237 239
237 240
237 238
238 847
239 802
240 779
241 242
241 259
242 243
242 244
243 642
244 245
245 246
246 247
247 694
247 248
248 249
248 250
249 851
250 646
250 256
250 251
251 252
252 254
252 255
252 253
253 764
254 681
255 674
256 258
256 257
257 762
258 775
259 260
259 276
260 261
261 262
262 263
263 871
263 264
264 275
264 265
265 813
265 266
266 267
267 268
267 269
268 635
269 270
269 271
270 816
271 273
271 274
271 272
272 776
273 666
274 707
275 867
276 277
276 291
277 278
278 792
278 279
279 280
280 755
280 287
280 281
281 282
282 284
282 283
283 628
284 936
284 285
285 286
286 839
287 290
287 289
287 288
288 935
289 924
290 937
291 292
291 306
291 312
292 293
293 294
294 868
294 295
295 296
295 297
296 731
297 302
297 298
298 720
298 299
299 300
299 301
300 746
301 714
302 304
302 305
302 303
303 804
304 865
305 702
306 307
307 308
308 836
308 309
309 311
309 310
310 891
311 933
312 328
312 313
313 314
313 320
314 315
315 650
315 316
315 317
316 886
317 319
317 318
318 757
319 777
320 321
320 323
321 322
322 606
323 324
324 873
324 325
325 326
325 327
326 914
327 911
328 722
329 664
329 330
330 717
330 331
331 955
331 332
332 648
332 333
333 763
333 336
333 337
333 335
333 338
333 334
334 688
335 835
336 941
337 920
338 798
339 340
339 341
340 644
341 342
342 661
342 343
343 344
344 345
345 355
345 346
346 351
346 347
347 899
347 348
348 676
348 349
349 350
350 861
351 353
351 354
351 352
352 789
353 923
354 752
355 807
356 357
356 358
357 653
358 359
359 360
360 361
361 362
362 665
362 369
362 363
363 364
363 367
364 365
364 366
365 787
366 727
367 784
367 368
368 693
369 370
369 372
369 371
370 932
371 900
372 732
373 374
374 375
374 376
375 680
376 952
376 377
377 378
378 857
379 859
380 673
381 387
381 493
381 382
382 579
382 383
383 384
384 385
385 578
385 386
386 564
387 388
387 404
388 389
389 390
390 831
390 391
391 392
392 403
392 393
393 759
393 394
394 402
394 395
395 396
396 401
396 397
397 399
397 398
397 400
398 754
399 928
400 706
401 640
402 860
403 758
404 406
404 440
404 405
406 652
406 423
406 407
407 409
407 408
408 690
409 410
410 647
410 411
411 412
412 413
413 422
413 414
413 417
414 415
414 416
415 930
416 864
417 418
417 421
417 419
418 659
419 846
419 420
420 808
421 696
422 626
423 439
423 424
424 425
425 426
426 675
426 427
427 428
428 438
428 429
429 637
429 435
429 430
430 431
431 433
431 434
431 432
432 912
433 879
434 862
435 437
435 436
436 782
437 956
438 629
439 949
440 461
440 475
440 441
440 455
441 442
442 443
443 840
443 444
444 445
445 449
445 446
445 450
446 448
446 447
447 768
448 909
449 643
450 454
450 451
450 452
451 691
452 800
452 453
453 805
454 781
455 456
456 457
457 737
457 458
458 460
458 459
459 848
460 892
461 462
462 463
463 882
463 464
464 465
464 466
465 934
466 467
466 468
466 469
467 913
468 760
469 470
470 474
470 471
470 472
471 845
472 921
472 473
473 819
474 788
475 476
475 491
476 477
476 483
477 478
478 854
478 482
478 479
479 480
479 481
480 858
481 621
482 619
483 484
483 486
484 485
485 863
485 593
486 487
487 917
487 488
488 489
488 490
489 940
490 687
491 492
492 872
493 499
493 494
494 495
495 945
495 496
496 497
496 498
497 796
498 699
499 560
499 501
499 500
501 555
501 502
502 761
502 520
502 503
503 504
503 505
504 953
505 506
506 820
506 507
507 508
508 509
509 841
509 510
509 514
510 513
510 511
510 512
511 723
512 810
513 785
514 515
515 516
515 519
516 893
516 517
517 518
518 712
519 633
520 521
520 536
521 522
522 523
523 524
524 794
524 525
525 526
525 527
526 747
527 677
527 533
527 528
528 529
529 532
529 531
529 530
530 897
531 793
532 874
533 535
533 534
534 878
535 825
536 537
536 553
537 538
537 539
538 765
539 641
539 540
540 541
541 542
542 543
543 663
543 550
543 544
544 545
544 546
545 806
546 547
546 549
546 548
547 881
548 669
549 822
550 877
550 551
551 552
552 803
553 554
554 829
555 556
556 852
556 557
557 558
557 559
558 756
559 918
560 741
560 561
561 660
561 562
562 563
563 791
564 565
565 566
566 567
567 724
567 568
568 569
568 570
569 631
570 883
570 571
570 575
571 573
571 574
571 572
572 713
573 929
574 907
575 576
576 656
576 577
577 818
578 623
579 580
580 581
581 870
581 582
582 692
582 588
582 583
583 584
584 585
584 586
584 587
585 942
586 743
587 790
588 589
588 590
589 824
590 671
590 591
591 592
592 876
593 594
594 595
595 837
595 596
596 670
596 597
597 605
597 598
598 604
598 599
599 600
600 603
600 602
600 601
601 866
602 884
603 944
604 812
605 651
606 833
606 607
607 618
607 608
608 927
608 609
609 610
610 617
610 611
611 616
611 612
612 613
612 614
612 615
613 844
614 898
615 701
616 729
617 753
618 947
722 734
733 736
734 735
735 736
798 799
902 903
903 904
904 905
